0 161 342 127 109 270 105 192 13 39 273 87 294 226 38 318 0
0 80 41 308 71 21 67 76 261 162 234 142 56 198 97 92 220 190 0
0 349 225 8 251 329 99 290 205 216 255 319 201 245 20 243 263 0
0 91 148 65 147 311 246 240 327 347 247 27 186 79 0
0 346 314 174 177 285 336 10 326 250 98 301 146 0
